(set-logic QF_LRA)
(declare-fun x1 () Real)
(declare-fun x2 () Real)
(declare-fun x3 () Real)
(declare-fun x4 () Real)
(declare-fun x5 () Real)
(declare-fun x6 () Real)
(declare-fun x7 () Real)
(declare-fun x8 () Real)
(declare-fun x9 () Real)
(declare-fun x10 () Real)

(assert (>= (- 2 ( + ( + (* 3 x3) (* -2 x1) ) (* -4 x2) )) 0))
(assert (>= (- 1 ( + ( + (* -6 x2) (* 3 x1) ) (* -6 x4) )) 0))
(assert (>= (- -10 ( + ( + (* 6 x2) (* -1 x3) ) (* -7 x5) )) 0))
(assert (>= (- -10 ( + ( + (* -4 x6) (* -10 x1) ) (* -4 x3) )) 0))
(assert (>= (- -9 ( + ( + (* -1 x2) (* -10 x3) ) (* 10 x7) )) 0))
(assert (>= (- -1 ( + ( + (* 6 x7) (* 9 x2) ) (* 2 x8) )) 0))
(assert (>= (- 6 ( + ( + (* 4 x9) (* -5 x1) ) (* -4 x6) )) 0))
(assert (>= (- -3 ( + ( + (* 7 x10) (* 7 x1) ) (* -1 x3) )) 0))
(assert (>= (- 10 ( + ( + (* 5 x2) (* -9 x7) ) (* -8 x8) )) 0))
(assert (>= (- 1 (* -9 x6)) 0))
(assert (>= (- -5 (* 5 x7)) 0))
(assert (>= (- -4 ( + ( + (* -6 x9) (* 6 x1) ) x6 )) 0))
(assert (>= (- 8 (* 10 x2)) 0))
(assert (>= (- 4 (* 4 x2)) 0))
(assert (>= (- 5 (* 5 x2)) 0))
(assert (>= (- 1 (* 4 x10)) 0))
(assert (>= (- -6 ( + ( + (* -4 x3) (* 4 x1) ) (* -3 x2) )) 0))
(assert (>= (- -3 ( + (* 8 x6) (* 9 x1) )) 0))
(assert (>= (- -1 ( + ( + (* 6 x2) (* 9 x1) ) (* 7 x4) )) 0))
(assert (>= (- -4 ( + ( + (* 6 x3) (* 8 x2) ) (* -3 x5) )) 0))
(check-sat)
(exit)